============================[ Problem Statistics ]=============================
|                                                                             |
|  Number of variables:          6160                                         |
|  Number of clauses:         2496012                                         |
|  Parse time:                  23.47 s                                       |
|  Simplification time:          0.00 s                                       |
|                                                                             |
============================[ Search Statistics ]====================================================
| Conflicts |          ORIGINAL         |          LEARNT          | Num Sols |      SUBGRAPHS      |
|           |    Vars  Clauses Literals |    Limit  Clauses Lit/Cl |          | Canonical Noncanon. |
=====================================================================================================
|       175 |    6160  2496087 762369422 |     2000      175     34 |       22 |        69        53 |
|       632 |    6160  2496394 762388319 |     2000      632     23 |      134 |       264       248 |
|      1873 |    6160  2497410 762449731 |     2000     1873     19 |      378 |       674      1020 |
|      3457 |    6160  2498657 762527091 |     3600     2457     17 |      733 |      1183      1912 |
|      5088 |    5854  1643466 518773339 |     4977     2261     22 |      923 |      1610      2847 |
|      8398 |    5852  1646017 518937118 |     6290     3088     16 |     1882 |      2775      4439 |
|     12755 |    5852  1649235 519138615 |     7549     4304     16 |     2703 |      3891      6836 |
|     19739 |    5851  1654511 519475085 |     8777     7516     18 |     3867 |      5453     10948 |
|     27711 |    5851  1659921 519819499 |    11197     6108     14 |     5007 |      6952     15218 |
|     44057 |    5851  1672423 520629339 |    13604    10661     12 |     8336 |     10553     24391 |
|     60862 |    5848  1683462 521348417 |    16010    13272     12 |    10540 |     13011     33226 |
=====================================================================================================
Number of solutions   : 11596       
Canonical subgraphs   : 14086          (85 /sec)
          order  3    : 1              (inf /sec)
          order  4    : 1              (inf /sec)
          order  5    : 2              (inf /sec)
          order  6    : 6              (inf /sec)
          order  7    : 15             (inf /sec)
          order  8    : 46             (2944 /sec)
          order  9    : 128            (2048 /sec)
          order 10    : 439            (511 /sec)
          order 11    : 1852           (175 /sec)
          order 12    : 11596          (75 /sec)
          order 13    : 0              (-nan /sec)
          order 14    : 0              (-nan /sec)
          order 15    : 0              (-nan /sec)
          order 16    : 0              (-nan /sec)
          order 17    : 0              (-nan /sec)
          order 18    : 0              (-nan /sec)
          order 19    : 0              (-nan /sec)
          order 20    : 0              (-nan /sec)
          order 21    : 0              (-nan /sec)
          order 22    : 0              (-nan /sec)
Noncanonical subgraphs: 35969          (2581 /sec)
          order  3    : 0              (-nan /sec)
          order  4    : 0              (-nan /sec)
          order  5    : 0              (-nan /sec)
          order  6    : 0              (-nan /sec)
          order  7    : 4              (inf /sec)
          order  8    : 26             (inf /sec)
          order  9    : 198            (inf /sec)
          order 10    : 999            (12787 /sec)
          order 11    : 5130           (5969 /sec)
          order 12    : 29612          (2278 /sec)
          order 13    : 0              (-nan /sec)
          order 14    : 0              (-nan /sec)
          order 15    : 0              (-nan /sec)
          order 16    : 0              (-nan /sec)
          order 17    : 0              (-nan /sec)
          order 18    : 0              (-nan /sec)
          order 19    : 0              (-nan /sec)
          order 20    : 0              (-nan /sec)
          order 21    : 0              (-nan /sec)
Canonicity checking   : 179.766 s
database reductions   : 12
restarts              : 204
conflicts             : 66387          (162 /sec)
decisions             : 132276         (0.00 % random) (323 /sec)
propagations          : 14109509       (34421 /sec)
conflict literals     : 1181031        (68.06 % deleted)
actual reward         : 0.033888
Memory used           : 2644.61 MB
CPU time              : 409.906 s

UNSATISFIABLE
